 vasp.5.4.4.18Apr17-6-g9f103f2a35 (build Nov 22 2021 14:44:17) complex

 executed on             LinuxIFC date 2022.08.08  11:37:39

 INCAR:
 POTCAR:    PAW_PBE Li 17Jan2003
 POTCAR:    PAW_PBE Co 02Aug2007
 POTCAR:    PAW_PBE O 08Apr2002
 POTCAR:    PAW_PBE Li 17Jan2003
   VRHFIN =Li: s1p0

   TITEL  = PAW_PBE Li 17Jan2003
   POMASS =    7.010; ZVAL   =    1.000    mass and valenz
   ENMAX  =  140.000; ENMIN  =  100.000 eV

 POTCAR:    PAW_PBE Co 02Aug2007
   VRHFIN =Co: d8 s1

   TITEL  = PAW_PBE Co 02Aug2007
   POMASS =   58.933; ZVAL   =    9.000    mass and valenz
   ENMAX  =  267.968; ENMIN  =  200.976 eV

 POTCAR:    PAW_PBE O 08Apr2002
   VRHFIN =O: s2p4

   TITEL  = PAW_PBE O 08Apr2002
   POMASS =   16.000; ZVAL   =    6.000    mass and valenz
   ENMAX  =  400.000; ENMIN  =  300.000 eV

 Optimization of the real space projectors (new method)

 maximal supplied QI-value         = 18.33
 optimisation between [QCUT,QGAM] = [ 12.46, 24.93] = [ 43.51,174.03] Ry
 Optimized for a Real-space Cutoff    1.13 Angstroem

   l    n(q)    QCUT    max X(q) W(low)/X(q) W(high)/X(q)  e(spline)
   0      8    12.465    33.825    0.12E-03    0.29E-03    0.99E-07
   0      8    12.465     8.944    0.86E-04    0.22E-03    0.72E-07
   1      8    12.465     4.214    0.27E-03    0.11E-03    0.82E-07
 Optimization of the real space projectors (new method)

[...]

   l    n(q)    QCUT    max X(q) W(low)/X(q) W(high)/X(q)  e(spline)
   2      9    12.514    65.824    0.30E-03    0.46E-03    0.43E-06
   2      9    12.514    61.429    0.31E-03    0.46E-03    0.44E-06
   0     10    12.514    56.174    0.90E-04    0.33E-03    0.30E-06
   0     10    12.514    31.263    0.81E-04    0.30E-03    0.28E-06
   1      9    12.514    19.828    0.38E-03    0.65E-04    0.24E-06
   1      9    12.514    15.139    0.32E-03    0.60E-04    0.20E-06
 Optimization of the real space projectors (new method)

 maximal supplied QI-value         = 24.76
 optimisation between [QCUT,QGAM] = [ 12.38, 25.00] = [ 42.90,175.06] Ry
 Optimized for a Real-space Cutoff    1.13 Angstroem

   l    n(q)    QCUT    max X(q) W(low)/X(q) W(high)/X(q)  e(spline)
   0      8    12.378    20.381    0.16E-03    0.54E-05    0.27E-06
   0      8    12.378    15.268    0.17E-03    0.61E-05    0.29E-06
   1      8    12.378     5.964    0.38E-03    0.23E-03    0.28E-06
   1      8    12.378     5.382    0.33E-03    0.20E-03    0.25E-06
  PAW_PBE Li 17Jan2003                  :
  PAW_PBE Co 02Aug2007                  :
  PAW_PBE O 08Apr2002                   :

 POSCAR: Li6 Co12 O24
  positions in cartesian coordinates
 exchange correlation table for  LEXCH =        8
   RHO(1)=    0.500       N(1)  =     2000
   RHO(2)=  100.500       N(2)  =     4000

 ion  position               nearest neighbor table
   1  0.481  0.012  0.003-  36 1.89  24 1.96  25 1.97  23 2.24  38 2.30  37 2.45   8 2.64  10 2.68
                            16 2.87   9 2.89  15 2.95
   2  0.811  0.792  0.330-  22 1.90  34 2.02  32 2.33  20 2.35  31 2.46  19 2.55  11 2.73  10 2.83
                             9 2.89
   3  0.151  0.281  0.667-  27 1.95  28 1.98  42 2.02  40 2.07  29 2.09  39 2.13   5 2.62  14 2.64
                             6 2.66  11 2.71  12 2.75   4 2.76  15 2.78   4 2.84  17 2.86  16 2.88
   4  0.178  0.788  0.670-  28 1.86  27 1.95  41 1.98  30 2.01  40 2.14  39 2.27   6 2.63   5 2.65
                            16 2.73  13 2.74   3 2.76  15 2.79  11 2.81   3 2.84   6 2.90  12 2.90
   5  0.624  0.278  0.667-  42 1.86  30 1.88  29 1.99  27 2.00  41 2.08  40 2.33  14 2.57   6 2.60
                             3 2.62   4 2.65  15 2.70  13 2.88  12 2.88   3 2.90  18 2.91  17 2.93
   6  0.631  0.745  0.664-  30 1.74  42 1.97  28 1.98  29 2.09  41 2.09  39 2.32  14 2.56   5 2.60
                             4 2.63  11 2.64   3 2.66  16 2.76  18 2.85  13 2.86   4 2.90   3 2.96
   7  0.199  0.444  0.157-  19 1.82  23 1.82  24 1.83  22 1.83  25 1.96  20 1.99   9 2.66   8 2.73
                            10 2.80  10 2.82   9 2.86   8 2.87
   8  0.207  0.935  0.151-  23 1.80  21 1.88  24 1.89  20 1.89  19 1.92  26 1.96   1 2.64   7 2.73
                            10 2.74  10 2.78   9 2.78   9 2.84   7 2.87
   9  0.711  0.429  0.163-  21 1.78  20 1.86  23 1.92  25 1.92  26 1.96  22 1.96   7 2.66  10 2.78
                             8 2.78  10 2.82   8 2.84   7 2.86   2 2.89   1 2.89
  10  0.709  0.929  0.155-  19 1.85  21 1.86  22 1.88  24 1.88  26 1.94  25 1.94   1 2.68   8 2.74
                             8 2.78   9 2.78   7 2.80   9 2.82   7 2.82   2 2.83
  11  0.914  0.883  0.519-  27 1.84  34 1.85  31 1.90  29 1.90  32 1.98  30 1.99   6 2.64   3 2.71
                            12 2.72   2 2.73  13 2.75  14 2.75  13 2.78   4 2.81  14 2.87  12 2.89
  12  0.936  0.376  0.508-  31 1.73  28 1.88  32 1.92  33 1.96  29 1.97  30 2.18  11 2.72  14 2.72
                            13 2.73   3 2.75  14 2.81   5 2.88  13 2.89  11 2.89   4 2.90
  13  0.410  0.872  0.505-  33 1.86  32 1.86  34 1.90  28 1.96  29 1.97  27 1.98  12 2.73   4 2.74
                            11 2.75  11 2.78  14 2.80  14 2.81   6 2.86   5 2.88  12 2.89
  14  0.435  0.386  0.520-  33 1.90  27 1.93  31 1.94  28 1.96  30 1.99  34 2.04   6 2.56   5 2.57
                             3 2.64  12 2.72  11 2.75  13 2.80  12 2.81  13 2.81  11 2.87
  15  0.375  0.184  0.825-  39 1.79  42 1.85  36 1.86  37 1.92  41 1.96  35 2.08   5 2.70  17 2.76
                            18 2.76  17 2.77   3 2.78   4 2.79  16 2.79  16 2.81  18 2.86   1 2.95
  16  0.385  0.688  0.828-  38 1.80  40 1.81  35 1.82  41 1.85  36 1.87  42 2.00  18 2.69   4 2.73
                            17 2.76   6 2.76  15 2.79  15 2.81  18 2.83  17 2.86   1 2.87   3 2.88
  17  0.887  0.209  0.835-  37 1.77  40 1.78  35 1.85  39 1.87  41 1.99  38 2.02  18 2.68  15 2.76
                            16 2.76  15 2.77  16 2.86   3 2.86  18 2.91   5 2.93   6 3.14
  18  0.868  0.679  0.833-  36 1.89  37 1.92  39 1.94  38 1.95  40 1.98  42 1.99  17 2.68  16 2.69
                            15 2.76  16 2.83   6 2.85  15 2.86   5 2.91  17 2.91   4 2.92
  19  0.062  0.139  0.217-   7 1.82  10 1.85   8 1.92   2 2.55
  20  0.056  0.656  0.230-   9 1.86   8 1.89   7 1.99   2 2.35
  21  0.562  0.123  0.219-   9 1.78  10 1.86   8 1.88
  22  0.543  0.630  0.224-   7 1.83  10 1.88   2 1.90   9 1.96
  23  0.342  0.249  0.097-   8 1.80   7 1.82   9 1.92   1 2.24
  24  0.353  0.731  0.088-   7 1.83  10 1.88   8 1.89   1 1.96
  25  0.838  0.234  0.081-   9 1.92  10 1.94   7 1.96   1 1.97
  26  0.838  0.719  0.081-  10 1.94   8 1.96   9 1.96
  27  0.262  0.065  0.585-  11 1.84  14 1.93   3 1.95   4 1.95  13 1.98   5 2.00
  28  0.270  0.581  0.587-   4 1.86  12 1.88  13 1.96  14 1.96   6 1.98   3 1.98
  29  0.764  0.077  0.586-  11 1.90  13 1.97  12 1.97   5 1.99   3 2.09   6 2.09
  30  0.791  0.589  0.603-   6 1.74   5 1.88  14 1.99  11 1.99   4 2.01  12 2.18
  31  0.069  0.190  0.450-  12 1.73  11 1.90  14 1.94   2 2.46
  32  0.057  0.686  0.439-  13 1.86  12 1.92  11 1.98   2 2.33
  33  0.557  0.184  0.444-  13 1.86  14 1.90  12 1.96
  34  0.586  0.701  0.440-  11 1.85  13 1.90   2 2.02  14 2.04
  35  0.234  0.414  0.902-  16 1.82  17 1.85  15 2.08
  36  0.237  0.883  0.892-  15 1.86  16 1.87   1 1.89  18 1.89
  37  0.728  0.364  0.900-  17 1.77  15 1.92  18 1.92   1 2.45
  38  0.708  0.872  0.902-  16 1.80  18 1.95  17 2.02   1 2.30
  39  0.025  0.006  0.770-  15 1.79  17 1.87  18 1.94   3 2.13   4 2.27   6 2.32
  40  0.039  0.486  0.766-  17 1.78  16 1.81  18 1.98   3 2.07   4 2.14   5 2.33
  41  0.525  0.978  0.756-  16 1.85  15 1.96   4 1.98  17 1.99   5 2.08   6 2.09
  42  0.512  0.465  0.751-  15 1.85   5 1.86   6 1.97  18 1.99  16 2.00   3 2.02

IMPORTANT INFORMATION: All symmetrisations will be switched off!
NOSYMM: (Re-)initialisation of all symmetry stuff for point group C_1.

Automatic generation of k-mesh.
 generate k-points for:    6    6    2
Space group operators:
 irot       det(A)        alpha          n_x          n_y          n_z        tau_x        tau_y        tau_z
    1     1.000000     0.000000     1.000000     0.000000     0.000000     0.000000     0.000000     0.000000

 Subroutine IBZKPT returns following result:

 Found     36 irreducible k-points:

 Following reciprocal coordinates:
            Coordinates               Weight
  0.083333  0.083333  0.250000      2.000000
  0.250000  0.083333  0.250000      2.000000
  0.416667  0.083333  0.250000      2.000000
 -0.416667  0.083333  0.250000      2.000000
 -0.250000  0.083333  0.250000      2.000000
 -0.083333  0.083333  0.250000      2.000000
  0.083333  0.250000  0.250000      2.000000
  0.250000  0.250000  0.250000      2.000000
  0.416667  0.250000  0.250000      2.000000
 -0.416667  0.250000  0.250000      2.000000
 -0.250000  0.250000  0.250000      2.000000
 -0.083333  0.250000  0.250000      2.000000
  0.083333  0.416667  0.250000      2.000000
  0.250000  0.416667  0.250000      2.000000
  0.416667  0.416667  0.250000      2.000000
 -0.416667  0.416667  0.250000      2.000000
 -0.250000  0.416667  0.250000      2.000000
 -0.083333  0.416667  0.250000      2.000000
  0.083333 -0.416667  0.250000      2.000000
  0.250000 -0.416667  0.250000      2.000000
  0.416667 -0.416667  0.250000      2.000000
 -0.416667 -0.416667  0.250000      2.000000
 -0.250000 -0.416667  0.250000      2.000000
 -0.083333 -0.416667  0.250000      2.000000
  0.083333 -0.250000  0.250000      2.000000
  0.250000 -0.250000  0.250000      2.000000
  0.416667 -0.250000  0.250000      2.000000
 -0.416667 -0.250000  0.250000      2.000000
 -0.250000 -0.250000  0.250000      2.000000
 -0.083333 -0.250000  0.250000      2.000000
  0.083333 -0.083333  0.250000      2.000000
  0.250000 -0.083333  0.250000      2.000000
  0.416667 -0.083333  0.250000      2.000000
 -0.416667 -0.083333  0.250000      2.000000
 -0.250000 -0.083333  0.250000      2.000000
 -0.083333 -0.083333  0.250000      2.000000

 Following cartesian coordinates:
            Coordinates               Weight
  0.015109  0.025557  0.021262      2.000000
  0.045327  0.042504  0.024891      2.000000
  0.075544  0.059451  0.028521      2.000000
 -0.075544 -0.025286  0.010375      2.000000
 -0.045327 -0.008338  0.014004      2.000000
 -0.015109  0.008609  0.017633      2.000000
  0.015109  0.059722  0.025494      2.000000
  0.045327  0.076670  0.029124      2.000000
  0.075544  0.093617  0.032753      2.000000
 -0.075544  0.008880  0.014607      2.000000
 -0.045327  0.025828  0.018236      2.000000
 -0.015109  0.042775  0.021865      2.000000
  0.015109  0.093888  0.029727      2.000000
  0.045327  0.110836  0.033356      2.000000
  0.075544  0.127783  0.036985      2.000000
 -0.075544  0.043046  0.018839      2.000000
 -0.045327  0.059993  0.022468      2.000000
 -0.015109  0.076941  0.026098      2.000000
  0.015109 -0.076941  0.008565      2.000000
  0.045327 -0.059993  0.012195      2.000000
  0.075544 -0.043046  0.015824      2.000000
 -0.075544 -0.127783 -0.002322      2.000000
 -0.045327 -0.110836  0.001307      2.000000
 -0.015109 -0.093888  0.004936      2.000000
  0.015109 -0.042775  0.012798      2.000000
[...]
     12     -13.7748      1.00000
     13     -13.6612      1.00000
     14     -13.6075      1.00000
     15     -13.5784      1.00000
     16     -13.5519      1.00000
     17     -13.5338      1.00000
     18     -13.4538      1.00000
     19     -13.3848      1.00000
     20     -13.3122      1.00000
     21     -13.2892      1.00000
     22     -13.1324      1.00000
     23     -13.0211      1.00000
     24     -12.6309      1.00000
     25      -3.6649      1.00000
     26      -3.4672      1.00000
     27      -3.1978      1.00000
     28      -3.1257      1.00000
     29      -3.0824      1.00000
     30      -2.9877      1.00000
     31      -2.9452      1.00000
     32      -2.6325      1.00000
     33      -2.5100      1.00000
     34      -2.3508      1.00000
     35      -2.0778      1.00000
     36      -1.8424      1.00000
     37      -1.7014      1.00000
     38      -1.6332      1.00000
     39      -1.5212      1.00000
     40      -1.4373      1.00000
     41      -1.3983      1.00000
     42      -1.3488      1.00000
     43      -1.3286      1.00000
     44      -1.2642      1.00000
     45      -1.2193      1.00000
     46      -1.0155      1.00000
     47      -0.9803      1.00000
     48      -0.8816      1.00000
     49      -0.8530      1.00000
     50      -0.8223      1.00000
     51      -0.7943      1.00000
     52      -0.5491      1.00000
     53      -0.5013      1.00000
     54      -0.4215      1.00000
     55      -0.3600      1.00000
     56      -0.3097      1.00000
     57      -0.2196      1.00000
     58      -0.1898      1.00000
     59      -0.1537      1.00000
     60      -0.0080      1.00000
[...]
    146       6.8635      0.00000
    147       6.9098      0.00000
    148       7.1879      0.00000
    149       7.2229      0.00000
    150       7.2443      0.00000
    151       7.2665      0.00000
    152       7.3329      0.00000
    153       7.4649      0.00000
    154       7.5995      0.00000
    155       7.6757      0.00000
    156       7.7533      0.00000
    157      11.2729      0.00000
    158      11.8329      0.00000
    159      12.5044      0.00000
    160      13.3117      0.00000

 soft charge-density along one line, spin component           1
         0         1         2         3         4         5         6         7         8         9
 total charge-density along one line

 soft charge-density along one line, spin component           2
         0         1         2         3         4         5         6         7         8         9
 total charge-density along one line

------------------------ aborting loop because EDIFF is reached ----------------------------------------

 total charge

# of ion       s       p       d       tot
    1        0.095   0.198   0.000   0.293
    2        0.071   0.142   0.000   0.213
    3        0.108   0.237   0.000   0.345
    4        0.116   0.253   0.000   0.369
    5        0.121   0.270   0.000   0.391
    6        0.127   0.288   0.000   0.415
    7        0.460   0.750   7.425   8.635
    8        0.467   0.752   7.246   8.465
    9        0.463   0.735   7.230   8.428
   10        0.469   0.755   7.239   8.463
   11        0.438   0.701   7.408   8.546
   12        0.455   0.680   7.238   8.374
   13        0.429   0.659   7.363   8.450
   14        0.416   0.622   7.214   8.252
   15        0.446   0.715   7.422   8.582
   16        0.496   0.832   7.314   8.642
   17        0.484   0.785   7.306   8.575
   18        0.406   0.609   7.315   8.330
   19        1.579   3.398   0.000   4.977
   20        1.578   3.371   0.000   4.950
   21        1.584   3.394   0.000   4.978
   22        1.572   3.421   0.000   4.993
   23        1.576   3.421   0.000   4.998
   24        1.576   3.427   0.000   5.003
   25        1.578   3.367   0.000   4.945
   26        1.589   3.304   0.000   4.893
   27        1.554   3.526   0.000   5.079
   28        1.557   3.509   0.000   5.066
   29        1.558   3.468   0.000   5.026
   30        1.558   3.485   0.000   5.043
   31        1.581   3.414   0.000   4.995
   32        1.575   3.362   0.000   4.937
   33        1.583   3.332   0.000   4.916
   34        1.568   3.407   0.000   4.975
   35        1.590   3.334   0.000   4.923
   36        1.571   3.434   0.000   5.005
   37        1.580   3.397   0.000   4.977
   38        1.580   3.363   0.000   4.943
   39        1.561   3.491   0.000   5.052
   40        1.566   3.494   0.000   5.060
   41        1.561   3.472   0.000   5.033
   42        1.558   3.499   0.000   5.057
tot         43.801  92.073  87.719 223.593

 magnetization (x)

[...]

  DFT-D2 method for vdW energy calculation

  Parameters of vdW forcefield:
         C6(Jnm^6/mol)     R0(A)
   Li       1.610          0.825
   Co      10.800          1.562
   O        0.700          1.342

  IVDW =   1
  VDW_RADIUS =    50.000 A
  VDW_S6 =     0.750
  VDW_SR =     1.000
  VDW_D =    20.000
  LVDW_EWALD = F

  Number of pair interactions contributing to vdW energy: 1219488
  Edisp (eV):   -9.87241

  FORCE on cell =-STRESS in cart. coord.  units (eV):
  Direction    XX          YY          ZZ          XY          YZ          ZX
  Alpha Z   755.38234   755.38234   755.38234
  Ewald   -1226.21922 -1045.84260-11186.39614   119.19755    -8.88793    63.98223
  Hartree  5034.70116  5108.22273 -2623.84513    53.03414   -10.81306    30.90131
  E(xc)   -1287.84680 -1287.55424 -1288.25497     0.15051     0.11431     0.01161
  Local   -8773.58130 -9023.51315  8818.03416  -171.74131    26.03909  -100.32146
  n-local  -589.05937  -586.88326  -593.59953     3.07833    -1.25348     2.99845
  augment  2023.49948  2024.53118  1996.25270     0.77009    -2.43962     2.01680
  Kinetic  4086.41776  4072.37205  4136.65853    -1.73609    -9.66969     8.04001
  Fock        0.00000     0.00000     0.00000     0.00000     0.00000     0.00000
  vdW        -7.26142    -6.84999   -13.87818     0.14307    -0.13360     0.10455
  Total      16.03262     9.86505     0.35377     2.89628    -7.04398     7.73351
  in kB      66.18617    40.72508     1.46046    11.95647   -29.07909    31.92561

 VOLUME and BASIS-vectors are now :
  energy-cutoff  :      600.00
  volume of cell :      388.10
      direct lattice vectors                 reciprocal lattice vectors
     5.515518188  0.000000000  0.000000000     0.181306627  0.101684312  0.021775238
    -2.735881567  4.878170967  0.000000000     0.000000000  0.204994865  0.025393554
    -0.730289400 -1.786837459 14.424625397     0.000000000  0.000000000  0.069325890

  length of vectors
     5.515518188  5.592995614 14.553210249     0.209011850  0.206561679  0.069325890

 FORCES acting on ions:
    Electron-Ion                     Ewald-Force                    Non-Local-Force
   0.353E+01 -.420E+01 -.739E+01   -.343E+01 0.398E+01 0.703E+01   0.126E+00 0.593E+00 -.877E-01
   -.429E+01 -.580E+01 -.736E+00   0.365E+01 0.511E+01 0.104E+01   0.101E+01 0.790E+00 0.365E+00
   0.437E+01 0.230E+01 0.723E+01   -.430E+01 -.244E+01 -.746E+01   -.507E+00 -.247E+00 0.453E+00
   0.386E+01 -.173E+00 0.503E+01   -.392E+01 0.198E+00 -.599E+01   -.740E+00 -.179E-02 0.105E+01
   -.624E+01 0.371E+01 0.774E+01   0.621E+01 -.347E+01 -.822E+01   0.810E+00 -.750E+00 0.419E+00
   0.296E+01 -.783E+01 0.169E+01   -.243E+01 0.760E+01 -.211E+01   -.113E+01 0.134E+01 0.129E+01
   0.492E+02 -.119E+01 -.190E+03   -.488E+02 0.627E+00 0.190E+03   -.104E+01 0.316E-01 -.163E+00
   0.216E+02 0.222E+02 -.133E+03   -.234E+02 -.232E+02 0.134E+03   -.422E-01 0.637E-02 -.346E+00
   0.273E+01 -.286E+02 -.215E+03   -.382E+01 0.304E+02 0.213E+03   -.738E+00 0.368E+00 -.420E+00
   -.322E+02 0.222E+01 -.168E+03   0.326E+02 -.244E+01 0.167E+03   -.432E+00 0.210E+00 -.242E+00
   -.753E+01 0.421E+02 0.247E+03   0.802E+01 -.428E+02 -.249E+03   0.385E+00 -.176E+00 0.574E+00
   0.762E+02 -.272E+02 0.306E+03   -.788E+02 0.279E+02 -.307E+03   -.186E+01 0.226E+00 0.164E+01
   -.521E+01 0.573E+01 0.322E+03   0.567E+01 -.481E+01 -.324E+03   -.172E+00 0.788E-01 0.340E+01
   -.263E+02 -.327E+02 0.261E+03   0.266E+02 0.326E+02 -.265E+03   0.507E-01 0.103E+01 0.132E+01
   0.630E+00 -.157E+02 -.117E+03   -.295E+00 0.155E+02 0.119E+03   0.500E+00 0.311E+00 0.148E+00
   -.363E+02 -.916E+01 -.644E+02   0.362E+02 0.946E+01 0.669E+02   -.308E-01 -.453E+00 -.136E+01
   -.404E+01 0.742E+02 -.135E+03   0.475E+01 -.770E+02 0.138E+03   -.368E+00 -.107E+01 -.110E+01
   0.252E+02 -.152E+02 -.123E+03   -.251E+02 0.164E+02 0.125E+03   0.294E-01 -.585E+00 -.226E+01
   -.515E+01 0.116E+02 -.457E+03   0.775E+01 -.105E+02 0.481E+03   -.270E+01 -.270E+01 -.231E+02
   -.799E+01 -.704E+01 -.448E+03   0.121E+02 0.856E+01 0.472E+03   -.344E+01 -.230E+01 -.246E+02
   0.430E+01 0.125E+02 -.464E+03   -.558E+01 -.162E+02 0.491E+03   0.144E+01 0.306E+01 -.260E+02
   -.137E+02 0.106E+01 -.448E+03   0.110E+02 -.305E+01 0.468E+03   0.436E+01 0.220E+01 -.192E+02
   -.105E+02 -.119E+02 0.223E+03   0.952E+01 0.173E+02 -.246E+03   0.271E+01 -.536E+01 0.207E+02
   0.416E+01 0.260E-01 0.224E+03   -.288E+01 -.520E+01 -.246E+03   -.173E+01 0.657E+01 0.220E+02
   -.685E+01 -.526E+01 0.213E+03   0.107E+02 0.824E+01 -.235E+03   -.391E+01 -.292E+01 0.231E+02
   -.367E+01 0.639E+01 0.212E+03   0.342E+01 -.911E+01 -.236E+03   0.338E+00 0.335E+01 0.259E+02
   -.232E+02 0.606E+00 -.130E+03   0.255E+02 -.193E+01 0.142E+03   -.133E+01 0.136E+01 -.106E+02
   -.205E+01 -.121E+02 -.128E+03   0.107E+01 0.148E+02 0.141E+03   0.202E+01 -.305E+01 -.135E+02
   0.212E+02 -.113E+02 -.138E+03   -.250E+02 0.119E+02 0.153E+03   0.427E+01 -.351E+00 -.146E+02
   -.247E+02 0.103E+02 -.103E+03   0.300E+02 -.107E+02 0.114E+03   -.419E+01 0.240E+00 -.130E+02
   -.381E+02 0.300E+01 0.522E+03   0.462E+02 -.423E+01 -.545E+03   -.782E+01 0.220E+00 0.221E+02
   0.204E+02 0.948E+01 0.492E+03   -.228E+02 -.930E+01 -.514E+03   0.221E+01 -.599E+00 0.237E+02
   0.325E+01 -.269E+02 0.496E+03   -.422E+01 0.287E+02 -.521E+03   0.178E+01 -.125E+01 0.261E+02
   0.494E+01 0.389E+02 0.495E+03   -.592E+01 -.436E+02 -.515E+03   0.287E+00 0.420E+01 0.212E+02
   -.405E+02 0.351E+02 -.425E+03   0.437E+02 -.366E+02 0.452E+03   -.194E+01 0.379E+00 -.273E+02
   0.304E+02 -.116E+02 -.401E+03   -.335E+02 0.113E+02 0.421E+03   0.309E+01 -.158E+00 -.193E+02
   0.421E+02 -.151E+02 -.414E+03   -.464E+02 0.169E+02 0.440E+03   0.353E+01 -.842E+00 -.266E+02
   -.430E+02 -.168E+02 -.398E+03   0.467E+02 0.191E+02 0.422E+03   -.266E+01 -.184E+01 -.243E+02
   0.217E+02 0.345E+02 0.249E+03   -.250E+02 -.378E+02 -.266E+03   0.235E+01 0.251E+01 0.149E+02
   0.312E+02 -.154E+02 0.289E+03   -.342E+02 0.169E+02 -.307E+03   0.149E+01 -.237E+00 0.169E+02
   -.135E+02 -.143E+02 0.272E+03   0.168E+02 0.172E+02 -.286E+03   -.367E+01 -.221E+01 0.142E+02
   -.108E+02 -.220E+02 0.257E+03   0.115E+02 0.237E+02 -.271E+03   -.122E+01 -.184E+00 0.153E+02
   0.889E+01 -.183E+01 -.866E+01   0.480E-13 -.355E-14 -.682E-12   -.889E+01 0.178E+01 0.864E+01

 POSITION                                       TOTAL-FORCE (eV/Angst)
      2.61681      0.05542      0.03787         0.229259      0.348183     -0.463950
      2.06575      3.27223      4.76314         0.382037      0.095546      0.540347
     -0.42396      0.17903      9.61462        -0.268530     -0.319288      0.095053
     -1.66208      2.64465      9.66767        -0.641469      0.099533     -0.046358
      2.19255      0.16336      9.62039         0.620733     -0.289066     -0.031726
      0.95969      2.44697      9.58258        -0.353550      0.848283      0.724457
     -0.23256      1.88477      2.26668        -0.360929     -0.541202     -0.098583
     -1.52293      4.28910      2.17762        -1.611378     -0.761234      0.994590
      2.62957      1.79989      2.34574        -1.716547      1.898195     -1.863521
      1.25491      4.25685      2.23316        -0.132344      0.000817     -1.213740
      2.24812      3.38182      7.48186         0.760785     -0.704757     -0.952999
      3.76193      0.92750      7.32690        -3.873155      0.665114      0.472015
     -0.49151      3.34909      7.29048         0.246451      1.004141      0.779907
      0.96172      0.95280      7.50375         0.317059      0.696878     -1.854891
      0.95947     -0.57686     11.90529         0.783484     -0.125663      2.179604
     -0.36140      1.87753     11.93849        -0.325069     -0.093452      1.026291
      3.71043     -0.47075     12.03909         0.309816     -3.358021      1.070754
      2.32317      1.82345     12.01069         0.189911      0.612761      0.334862
     -0.19799      0.29117      3.13730        -0.120415     -1.700657      1.071097
     -1.65211      2.78840      3.32206         0.629906     -0.797163     -0.852859
      2.60272      0.20848      3.15374         0.160308     -0.687950      1.057578
      1.11000      2.67184      3.23128         1.621020      0.180305      0.467951
      1.13496      1.03940      1.40537         1.767574     -0.036304     -1.948903
     -0.12105      3.41062      1.26988        -0.469271      1.322848     -0.320319
      3.92371      0.99725      1.17004        -0.014180      0.094226      1.496313
      2.59810      3.36175      1.16424         0.089614      0.653415      1.802250
      0.84148     -0.72932      8.44378         0.947848      0.039032      0.822133
     -0.52992      1.78468      8.46560         1.019542     -0.306484     -0.551574
      3.57413     -0.67184      8.45812         0.421813      0.207913     -0.388605
      2.30831      1.79822      8.69320         1.016883     -0.205849     -2.209200
     -0.46890      0.12174      6.49415         0.284061     -1.040518     -1.167966
     -1.88098      2.56226      6.33178        -0.123869     -0.416802      0.946238
      2.24718      0.10276      6.40058         0.813219      0.603777      0.645158
      0.99415      2.63412      6.34777        -0.768612     -0.538258      0.907704
     -0.49975      0.40600     13.00709         1.311652     -1.077336     -0.531163
     -1.75880      2.71384     12.86599        -0.060732     -0.411976      0.451801
      2.36312      0.16776     12.98889        -0.852862      1.010928     -0.635611
      0.85956      2.64290     13.01039         1.099606      0.509585     -0.709497
     -0.44189     -1.34409     11.10519        -0.945351     -0.940142     -1.731223
     -1.67581      1.00281     11.04389        -1.628450      1.229448     -1.654522
     -0.33208      3.42051     10.90999        -0.311085      0.667691      0.001112
      1.00212      0.92493     10.83239        -0.444784      1.563501      1.339998
    total drift:                                0.003799     -0.051661     -0.023623

  FREE ENERGIE OF THE ION-ELECTRON SYSTEM (eV)
  free  energy   TOTEN  =      -232.02291773 eV

  energy  without entropy=     -232.01918405  energy(sigma->0) =     -232.02105089

 total charge

[...]

 magnetization (x)

# of ion       s       p       d       tot
    1        0.000   0.000   0.000   0.000
    2        0.001   0.001   0.000   0.002
    3        0.000  -0.000   0.000  -0.000
    4        0.002   0.001   0.000   0.004
    5        0.000   0.000   0.000   0.001
    6       -0.000  -0.002   0.000  -0.002
    7        0.004   0.006  -0.011  -0.001
    8        0.014   0.019   1.341   1.374
    9        0.014   0.019   1.363   1.396
   10        0.013   0.017   1.319   1.348
   11        0.003   0.004  -0.015  -0.008
   12        0.012   0.007   1.450   1.470
   13        0.002   0.003  -0.034  -0.030
   14        0.013   0.013   1.992   2.018
   15        0.001   0.001   0.008   0.010
   16       -0.007  -0.007  -1.180  -1.194
   17        0.006   0.006   1.384   1.397
   18        0.000   0.001   0.000   0.001
   19        0.001  -0.113   0.000  -0.112
   20        0.001  -0.110   0.000  -0.109
   21        0.002  -0.115   0.000  -0.114
   22        0.000  -0.102   0.000  -0.102
   23        0.001  -0.088   0.000  -0.087
   24        0.001  -0.095   0.000  -0.095
   25        0.000  -0.151   0.000  -0.150
   26        0.001  -0.185   0.000  -0.184
   27        0.003   0.014   0.000   0.017
   28        0.001  -0.053   0.000  -0.051
   29        0.001  -0.042   0.000  -0.041
   30        0.003  -0.000   0.000   0.003
   31        0.005  -0.040   0.000  -0.035
   32       -0.000  -0.116   0.000  -0.117
   33       -0.001  -0.257   0.000  -0.258
   34        0.001  -0.031   0.000  -0.030
   35        0.000  -0.056   0.000  -0.056
   36        0.000   0.077   0.000   0.077
   37        0.001  -0.034   0.000  -0.033
   38       -0.000  -0.043   0.000  -0.043
   39        0.001  -0.019   0.000  -0.018
   40        0.001  -0.023   0.000  -0.022
   41        0.001  -0.008   0.000  -0.007
   42       -0.001   0.009   0.000   0.008
tot          0.100  -1.490   7.617   6.227