 vasp.5.4.4.18Apr17-6-g9f103f2a35 (build Nov 22 2021 14:44:17) complex

 executed on             LinuxIFC date 2022.08.08  10:58:02

 INCAR:
 POTCAR:    PAW_PBE Li 17Jan2003
 POTCAR:    PAW_PBE Co 02Aug2007
 POTCAR:    PAW_PBE O 08Apr2002
 POTCAR:    PAW_PBE Li 17Jan2003
   VRHFIN =Li: s1p0

   TITEL  = PAW_PBE Li 17Jan2003
   POMASS =    7.010; ZVAL   =    1.000    mass and valenz
   ENMAX  =  140.000; ENMIN  =  100.000 eV

 POTCAR:    PAW_PBE Co 02Aug2007
   VRHFIN =Co: d8 s1

   TITEL  = PAW_PBE Co 02Aug2007
   POMASS =   58.933; ZVAL   =    9.000    mass and valenz
   ENMAX  =  267.968; ENMIN  =  200.976 eV

 POTCAR:    PAW_PBE O 08Apr2002
   VRHFIN =O: s2p4

   TITEL  = PAW_PBE O 08Apr2002
   POMASS =   16.000; ZVAL   =    6.000    mass and valenz
   ENMAX  =  400.000; ENMIN  =  300.000 eV

 Optimization of the real space projectors (new method)

 maximal supplied QI-value         = 18.33
 optimisation between [QCUT,QGAM] = [ 12.46, 24.93] = [ 43.51,174.03] Ry
 Optimized for a Real-space Cutoff    1.13 Angstroem

   l    n(q)    QCUT    max X(q) W(low)/X(q) W(high)/X(q)  e(spline)
   0      8    12.465    33.825    0.12E-03    0.29E-03    0.99E-07
   0      8    12.465     8.944    0.86E-04    0.22E-03    0.72E-07
   1      8    12.465     4.214    0.27E-03    0.11E-03    0.82E-07
 Optimization of the real space projectors (new method)

[...]

   l    n(q)    QCUT    max X(q) W(low)/X(q) W(high)/X(q)  e(spline)
   2      9    12.514    65.824    0.30E-03    0.46E-03    0.43E-06
   2      9    12.514    61.429    0.31E-03    0.46E-03    0.44E-06
   0     10    12.514    56.174    0.90E-04    0.33E-03    0.30E-06
   0     10    12.514    31.263    0.81E-04    0.30E-03    0.28E-06
   1      9    12.514    19.828    0.38E-03    0.65E-04    0.24E-06
   1      9    12.514    15.139    0.32E-03    0.60E-04    0.20E-06
 Optimization of the real space projectors (new method)

 maximal supplied QI-value         = 24.76
 optimisation between [QCUT,QGAM] = [ 12.38, 25.00] = [ 42.90,175.06] Ry
 Optimized for a Real-space Cutoff    1.13 Angstroem

   l    n(q)    QCUT    max X(q) W(low)/X(q) W(high)/X(q)  e(spline)
   0      8    12.378    20.381    0.16E-03    0.54E-05    0.27E-06
   0      8    12.378    15.268    0.17E-03    0.61E-05    0.29E-06
   1      8    12.378     5.964    0.38E-03    0.23E-03    0.28E-06
   1      8    12.378     5.382    0.33E-03    0.20E-03    0.25E-06
  PAW_PBE Li 17Jan2003                  :
  PAW_PBE Co 02Aug2007                  :
  PAW_PBE O 08Apr2002                   :

 POSCAR: Li6 Co12 O24
  positions in cartesian coordinates
 exchange correlation table for  LEXCH =        8
   RHO(1)=    0.500       N(1)  =     2000
   RHO(2)=  100.500       N(2)  =     4000

 ion  position               nearest neighbor table
   1  0.382  0.875  0.972-  36 1.76  24 2.14  38 2.31  37 2.38  16 2.65  15 2.79  17 3.14
   2  0.853  0.725  0.348-  34 1.96  19 2.02  32 2.05  22 2.13  20 2.25  33 2.38  11 2.71  14 2.75
                            12 2.87   8 2.93  10 3.00   9 3.01
   3  0.139  0.299  0.682-  40 1.83  39 1.91  42 2.02  27 2.03  29 2.19  28 2.36  17 2.49  15 2.55
                            16 2.61   5 2.73   6 2.78   4 2.85   4 2.99   5 3.00   6 3.03  11 3.04
   4  0.097  0.792  0.674-  39 1.71  30 2.01  40 2.01  41 2.13  27 2.22  28 2.36  18 2.57   6 2.65
                            15 2.65   5 2.82  16 2.84   3 2.85  11 2.89  12 2.98   3 2.99   5 3.01
   5  0.618  0.305  0.655-  27 1.95  42 1.99  30 2.18  41 2.18  29 2.19  40 2.32  13 2.71  14 2.73
                             3 2.73   6 2.74  15 2.74   4 2.82  12 2.93  17 2.97  18 2.98   3 3.00
   6  0.622  0.775  0.670-  42 1.92  28 2.06  39 2.10  41 2.11  30 2.12  29 2.35  16 2.62   4 2.65
                             5 2.74  17 2.75   3 2.78  18 2.82  13 2.87  14 2.89   3 3.03   4 3.03
   7  0.188  0.392  0.190-  20 1.87  25 1.90  22 1.97  23 1.98  24 2.01  19 2.04   9 2.81   8 2.85
                             9 2.87  10 2.91  10 2.92   8 2.97
   8  0.185  0.881  0.181-  24 1.88  21 1.88  19 1.89  23 1.96  20 1.97  26 1.98  10 2.82   7 2.85
                            10 2.86   9 2.87   2 2.93   9 2.93   7 2.97
   9  0.683  0.393  0.181-  23 1.85  22 1.90  25 1.93  20 1.93  26 1.98  21 2.03   7 2.81  10 2.86
                             8 2.87   7 2.87   8 2.93  10 2.97   2 3.01
  10  0.692  0.889  0.171-  22 1.84  26 1.86  21 1.89  25 1.96  24 1.98  19 2.02   8 2.82   9 2.86
                             8 2.86   7 2.91   7 2.92   9 2.97   2 3.00
  11  0.007  0.007  0.503-  27 1.82  31 1.90  34 1.91  29 1.93  30 1.95  32 1.99   2 2.71  13 2.81
                            13 2.87  14 2.87  12 2.88   4 2.89  14 2.93  12 2.94   3 3.04   6 3.08
  12  0.001  0.499  0.501-  33 1.89  28 1.90  32 1.91  31 1.97  29 2.00  30 2.04  14 2.79   2 2.87
                            11 2.88  13 2.88  14 2.89  13 2.92   5 2.93  11 2.94   4 2.98   3 3.09
  13  0.508  0.999  0.508-  29 1.89  33 1.91  34 1.96  28 1.96  32 1.97  27 2.24   5 2.71  11 2.81
                            11 2.87   6 2.87  14 2.88  12 2.88  12 2.92  14 2.95   4 3.15
  14  0.515  0.509  0.498-  34 1.85  33 1.87  30 1.88  31 1.97  28 2.04  27 2.18   5 2.73   2 2.75
                            12 2.79  11 2.87  13 2.88  12 2.89   6 2.89  11 2.93  13 2.95
  15  0.311  0.113  0.812-  41 1.78  35 1.85  36 1.88  39 1.90  37 1.90  42 1.98   3 2.55   4 2.65
                             5 2.74   1 2.79  17 2.81  18 2.86  17 2.87  16 2.89  16 2.93  18 2.96
  16  0.320  0.620  0.818-  38 1.80  36 1.91  40 1.91  42 1.95  35 1.97  41 1.98   3 2.61   6 2.62
                             1 2.65  18 2.83   4 2.84  18 2.85  17 2.86  15 2.89  15 2.93  17 2.94
  17  0.815  0.112  0.814-  38 1.93  37 1.94  35 1.94  40 1.96  39 1.97  41 1.98   3 2.49   6 2.75
                            15 2.81  16 2.86  15 2.87  18 2.89  18 2.94  16 2.94   5 2.97   1 3.14
  18  0.822  0.618  0.824-  36 1.84  38 1.87  37 1.93  42 1.95  40 1.99  39 2.06   4 2.57   6 2.82
                            16 2.83  16 2.85  15 2.86  17 2.89  17 2.94  15 2.96   5 2.98
  19  0.019  0.026  0.253-   8 1.89  10 2.02   2 2.02   7 2.04
  20  0.013  0.542  0.252-   7 1.87   9 1.93   8 1.97   2 2.25
  21  0.518  0.027  0.243-   8 1.88  10 1.89   9 2.03
  22  0.551  0.587  0.245-  10 1.84   9 1.90   7 1.97   2 2.13
  23  0.360  0.231  0.119-   9 1.85   8 1.96   7 1.98
  24  0.336  0.723  0.110-   8 1.88  10 1.98   7 2.01   1 2.14
  25  0.873  0.248  0.117-   7 1.90   9 1.93  10 1.96
  26  0.851  0.728  0.107-  10 1.86   8 1.98   9 1.98
  27  0.283  0.157  0.585-  11 1.82   5 1.95   3 2.03  14 2.18   4 2.22  13 2.24
  28  0.321  0.654  0.573-  12 1.90  13 1.96  14 2.04   6 2.06   4 2.36   3 2.36
  29  0.834  0.158  0.574-  13 1.89  11 1.93  12 2.00   3 2.19   5 2.19   6 2.35
  30  0.824  0.670  0.572-  14 1.88  11 1.95   4 2.01  12 2.04   6 2.12   5 2.18
  31  0.167  0.328  0.433-  11 1.90  12 1.97  14 1.97
  32  0.173  0.832  0.435-  12 1.91  13 1.97  11 1.99   2 2.05
  33  0.666  0.328  0.440-  14 1.87  12 1.89  13 1.91   2 2.38
  34  0.675  0.835  0.437-  14 1.85  11 1.91   2 1.96  13 1.96
  35  0.155  0.267  0.879-  15 1.85  17 1.94  16 1.97
  36  0.154  0.790  0.879-   1 1.76  18 1.84  15 1.88  16 1.91
  37  0.637  0.268  0.880-  15 1.90  18 1.93  17 1.94   1 2.38
  38  0.639  0.772  0.877-  16 1.80  18 1.87  17 1.93   1 2.31
  39  0.990  0.957  0.741-   4 1.71  15 1.90   3 1.91  17 1.97  18 2.06   6 2.10
  40  0.993  0.459  0.749-   3 1.83  16 1.91  17 1.96  18 1.99   4 2.01   5 2.32
  41  0.463  0.962  0.750-  15 1.78  16 1.98  17 1.98   6 2.11   4 2.13   5 2.18
  42  0.497  0.466  0.749-   6 1.92  18 1.95  16 1.95  15 1.98   5 1.99   3 2.02

IMPORTANT INFORMATION: All symmetrisations will be switched off!
NOSYMM: (Re-)initialisation of all symmetry stuff for point group C_1.

Automatic generation of k-mesh.
 generate k-points for:    6    5    2
Space group operators:
 irot       det(A)        alpha          n_x          n_y          n_z        tau_x        tau_y        tau_z
    1     1.000000     0.000000     1.000000     0.000000     0.000000     0.000000     0.000000     0.000000

 Subroutine IBZKPT returns following result:

 Found     30 irreducible k-points:

 Following reciprocal coordinates:
            Coordinates               Weight
  0.083333 -0.000000  0.250000      2.000000
  0.250000  0.000000  0.250000      2.000000
  0.416667 -0.000000  0.250000      2.000000
 -0.416667  0.000000  0.250000      2.000000
 -0.250000 -0.000000  0.250000      2.000000
 -0.083333  0.000000  0.250000      2.000000
  0.083333  0.200000  0.250000      2.000000
  0.250000  0.200000  0.250000      2.000000
  0.416667  0.200000  0.250000      2.000000
 -0.416667  0.200000  0.250000      2.000000
 -0.250000  0.200000  0.250000      2.000000
 -0.083333  0.200000  0.250000      2.000000
  0.083333  0.400000  0.250000      2.000000
  0.250000  0.400000  0.250000      2.000000
  0.416667  0.400000  0.250000      2.000000
 -0.416667  0.400000  0.250000      2.000000
 -0.250000  0.400000  0.250000      2.000000
 -0.083333  0.400000  0.250000      2.000000
  0.083333 -0.400000  0.250000      2.000000
  0.250000 -0.400000  0.250000      2.000000
  0.416667 -0.400000  0.250000      2.000000
 -0.416667 -0.400000  0.250000      2.000000
 -0.250000 -0.400000  0.250000      2.000000
 -0.083333 -0.400000  0.250000      2.000000
  0.083333 -0.200000  0.250000      2.000000
  0.250000 -0.200000  0.250000      2.000000
  0.416667 -0.200000  0.250000      2.000000
 -0.416667 -0.200000  0.250000      2.000000
 -0.250000 -0.200000  0.250000      2.000000
 -0.083333 -0.200000  0.250000      2.000000

 Following cartesian coordinates:
            Coordinates               Weight
  0.014675  0.008268  0.017062      2.000000
  0.044025  0.024805  0.016858      2.000000
  0.073374  0.041342  0.016654      2.000000
 -0.073374 -0.041342  0.017674      2.000000
 -0.044025 -0.024805  0.017470      2.000000
 -0.014675 -0.008268  0.017266      2.000000
  0.014675  0.047724  0.015661      2.000000
  0.044025  0.064261  0.015457      2.000000
  0.073374  0.080798  0.015253      2.000000
 -0.073374 -0.001887  0.016273      2.000000
 -0.044025  0.014650  0.016069      2.000000
 -0.014675  0.031187  0.015865      2.000000
  0.014675  0.087180  0.014260      2.000000
  0.044025  0.103717  0.014056      2.000000
  0.073374  0.120254  0.013852      2.000000
 -0.073374  0.037569  0.014872      2.000000
 -0.044025  0.054106  0.014668      2.000000
 -0.014675  0.070643  0.014464      2.000000
  0.014675 -0.070643  0.019864      2.000000
  0.044025 -0.054106  0.019660      2.000000
  0.073374 -0.037569  0.019456      2.000000
 -0.073374 -0.120254  0.020476      2.000000
 -0.044025 -0.103717  0.020272      2.000000
 -0.014675 -0.087180  0.020068      2.000000
  0.014675 -0.031187  0.018463      2.000000
  0.044025 -0.014650  0.018259      2.000000
  0.073374  0.001887  0.018055      2.000000
 -0.073374 -0.080798  0.019075      2.000000
 -0.044025 -0.064261  0.018871      2.000000
 -0.014675 -0.047724  0.018667      2.000000

 SYSTEM =  LiCoO2
 POSCAR =  Li6 Co12 O24

 Startparameter for this run:
   NWRITE =      2    write-flag & timer
[...]
     12     -14.3935      1.00000
     13     -14.3645      1.00000
     14     -14.2669      1.00000
     15     -14.1566      1.00000
     16     -14.0909      1.00000
     17     -13.9576      1.00000
     18     -13.9100      1.00000
     19     -13.8424      1.00000
     20     -13.8306      1.00000
     21     -13.7552      1.00000
     22     -13.6931      1.00000
     23     -13.6440      1.00000
     24     -13.5838      1.00000
     25      -3.5548      1.00000
     26      -3.5168      1.00000
     27      -3.3395      1.00000
     28      -3.3046      1.00000
     29      -3.1808      1.00000
     30      -3.0388      1.00000
     31      -2.8506      1.00000
     32      -2.6383      1.00000
     33      -2.6228      1.00000
     34      -2.5980      1.00000
     35      -2.4385      1.00000
     36      -2.2488      1.00000
     37      -2.2018      1.00000
     38      -2.0686      1.00000
     39      -1.9763      1.00000
     40      -1.8675      1.00000
     41      -1.8051      1.00000
     42      -1.7569      1.00000
     43      -1.6181      1.00000
     44      -1.5327      1.00000
     45      -1.5030      1.00000
     46      -1.4690      1.00000
     47      -1.4393      1.00000
     48      -1.3799      1.00000
     49      -1.2517      1.00000
     50      -1.2414      1.00000
     51      -1.1783      1.00000
     52      -1.1356      1.00000
     53      -1.1051      1.00000
     54      -1.0463      1.00000
     55      -0.9393      1.00000
     56      -0.8135      1.00000
     57      -0.7779      1.00000
     58      -0.7192      1.00000
     59      -0.6958      1.00000
     60      -0.6386      1.00000
[...]
    146       6.0964      0.00000
    147       6.1276      0.00000
    148       6.1804      0.00000
    149       6.2172      0.00000
    150       6.2552      0.00000
    151       6.2642      0.00000
    152       6.3310      0.00000
    153       6.3605      0.00000
    154       6.4487      0.00000
    155       6.5458      0.00000
    156       6.6056      0.00000
    157      10.2513      0.00000
    158      10.6224      0.00000
    159      11.6684      0.00000
    160      11.9286      0.00000

 soft charge-density along one line, spin component           1
         0         1         2         3         4         5         6         7         8         9
 total charge-density along one line

 soft charge-density along one line, spin component           2
         0         1         2         3         4         5         6         7         8         9
 total charge-density along one line

------------------------ aborting loop because EDIFF is reached ----------------------------------------

 total charge

# of ion       s       p       d       tot
    1        0.081   0.165   0.000   0.246
    2        0.085   0.177   0.000   0.261
    3        0.117   0.260   0.000   0.378
    4        0.123   0.276   0.000   0.399
    5        0.091   0.190   0.000   0.281
    6        0.094   0.199   0.000   0.294
    7        0.392   0.578   7.242   8.213
    8        0.436   0.673   7.149   8.259
    9        0.428   0.652   7.145   8.225
   10        0.439   0.679   7.158   8.276
   11        0.443   0.694   7.179   8.316
   12        0.420   0.623   7.150   8.194
   13        0.391   0.566   7.250   8.207
   14        0.414   0.604   7.326   8.344
   15        0.475   0.777   7.258   8.510
   16        0.433   0.666   7.371   8.471
   17        0.402   0.592   7.306   8.300
   18        0.416   0.622   7.300   8.338
   19        1.574   3.350   0.000   4.924
   20        1.574   3.370   0.000   4.944
   21        1.586   3.314   0.000   4.900
   22        1.573   3.397   0.000   4.970
   23        1.580   3.338   0.000   4.918
   24        1.571   3.365   0.000   4.936
   25        1.581   3.332   0.000   4.913
   26        1.584   3.318   0.000   4.903
   27        1.564   3.419   0.000   4.984
   28        1.562   3.420   0.000   4.982
   29        1.565   3.419   0.000   4.984
   30        1.561   3.448   0.000   5.008
   31        1.586   3.297   0.000   4.883
   32        1.577   3.345   0.000   4.921
   33        1.574   3.382   0.000   4.955
   34        1.572   3.397   0.000   4.969
   35        1.578   3.348   0.000   4.926
   36        1.565   3.459   0.000   5.024
   37        1.572   3.361   0.000   4.933
   38        1.566   3.428   0.000   4.994
   39        1.558   3.503   0.000   5.061
   40        1.552   3.486   0.000   5.038
   41        1.558   3.483   0.000   5.041
   42        1.554   3.480   0.000   5.034
tot         43.367  90.454  86.835 220.655

 magnetization (x)

[...]

  DFT-D2 method for vdW energy calculation

  Parameters of vdW forcefield:
         C6(Jnm^6/mol)     R0(A)
   Li       1.610          0.825
   Co      10.800          1.562
   O        0.700          1.342

  IVDW =   1
  VDW_RADIUS =    50.000 A
  VDW_S6 =     0.750
  VDW_SR =     1.000
  VDW_D =    20.000
  LVDW_EWALD = F

  Number of pair interactions contributing to vdW energy: 1128543
  Edisp (eV):   -9.39936

  FORCE on cell =-STRESS in cart. coord.  units (eV):
  Direction    XX          YY          ZZ          XY          YZ          ZX
  Alpha Z   699.24159   699.24159   699.24159
  Ewald    -540.09979  -685.02312-11512.83548    43.07193   179.08455    66.46243
  Hartree  5525.58813  5465.98602 -2963.89077    21.11268    70.02111    32.75093
  E(xc)   -1280.88702 -1280.91712 -1282.78874     0.12860     0.24894     0.06778
  Local   -9876.47647 -9686.85164  9529.87052   -60.80969  -235.30187   -96.30892
  n-local  -594.88129  -604.23748  -607.20984     1.81414     5.37600     1.77515
  augment  2016.90651  2027.55795  2009.63577    -2.14309    -6.06821    -1.39143
  Kinetic  4045.70775  4043.33997  4132.16142    -3.14612    -9.85993    -2.21522
  Fock        0.00000     0.00000     0.00000     0.00000     0.00000     0.00000
  vdW        -5.38321    -5.54931   -12.03308     0.20058     0.20891     0.14103
  Total     -10.28380   -26.45314    -7.84861     0.22902     3.70951     1.28176
  in kB     -39.29857  -101.08818   -29.99272     0.87519    14.17555     4.89812

 VOLUME and BASIS-vectors are now :
  energy-cutoff  :      600.00
  volume of cell :      419.26
      direct lattice vectors                 reciprocal lattice vectors
     5.678631783  0.000000000  0.000000000     0.176098757  0.099221865 -0.001224370
    -2.856086016  5.068975449  0.000000000     0.000000000  0.197278525 -0.007004525
    -0.190119445  0.517157018 14.565438271     0.000000000  0.000000000  0.068655675

  length of vectors
     5.678631783  5.818224766 14.575856366     0.202131764  0.197402836  0.068655675

 FORCES acting on ions:
    Electron-Ion                     Ewald-Force                    Non-Local-Force
   -.590E+01 -.561E+01 -.446E+02   0.534E+01 0.507E+01 0.443E+02   0.139E+01 0.944E+00 0.174E+01
   -.135E+01 0.487E+01 0.218E+02   0.115E+01 -.429E+01 -.225E+02   0.285E+00 -.769E+00 -.131E+00
   0.997E+00 -.558E+01 0.694E+01   -.121E+01 0.549E+01 -.700E+01   0.394E+00 0.233E+00 -.128E+01
   -.878E+01 0.765E+01 0.615E+01   0.836E+01 -.744E+01 -.582E+01   0.192E+01 -.881E+00 -.168E+01
   -.722E+01 -.154E+01 -.923E+01   0.674E+01 0.148E+01 0.961E+01   0.975E+00 0.594E-01 0.234E-01
   0.168E+01 -.310E+01 -.204E+01   -.168E+01 0.268E+01 0.213E+01   -.648E-01 0.852E+00 -.480E+00
   -.344E+02 0.299E+02 0.131E+03   0.341E+02 -.305E+02 -.132E+03   0.924E+00 0.190E-01 -.163E+00
   0.105E+02 -.194E+02 0.214E+03   -.104E+02 0.199E+02 -.214E+03   -.406E+00 -.314E+00 -.191E+00
   -.245E+01 0.343E+02 0.186E+03   0.349E+01 -.347E+02 -.187E+03   0.484E+00 0.566E-01 0.755E+00
   0.628E+01 -.513E+02 0.297E+03   -.654E+01 0.521E+02 -.296E+03   0.938E-01 0.352E+00 -.141E+00
   -.274E+02 0.688E+01 0.156E+03   0.274E+02 -.640E+01 -.157E+03   -.524E+00 -.825E+00 -.483E+00
   0.242E+01 0.159E+01 0.119E+03   -.113E+01 -.167E+01 -.120E+03   -.720E+00 -.485E+00 0.104E+01
   0.546E+02 -.143E+02 0.761E+02   -.545E+02 0.130E+02 -.789E+02   -.158E+01 0.591E+00 0.181E+01
   0.277E+02 0.565E+02 0.133E+03   -.296E+02 -.570E+02 -.134E+03   -.711E+00 -.129E+01 0.255E+01
   0.156E+02 -.418E+02 -.302E+03   -.158E+02 0.433E+02 0.305E+03   -.176E+00 0.347E+00 -.122E+01
   0.117E+02 0.327E+02 -.330E+03   -.121E+02 -.345E+02 0.332E+03   -.235E+00 0.498E+00 -.218E+01
   -.353E+00 -.127E+02 -.305E+03   0.318E-01 0.137E+02 0.309E+03   -.114E+00 -.516E+00 -.253E+01
   -.549E+01 0.199E+02 -.368E+03   0.461E+01 -.215E+02 0.371E+03   0.558E-01 0.590E+00 -.350E+01
   0.988E+01 -.323E+02 -.162E+03   -.126E+02 0.358E+02 0.180E+03   0.231E+01 -.312E+01 -.191E+02
   0.327E+01 0.532E+01 -.180E+03   -.302E+01 -.505E+01 0.200E+03   -.858E+00 0.454E+00 -.209E+02
   -.447E+01 -.304E+02 -.175E+03   0.629E+01 0.322E+02 0.198E+03   -.208E+01 -.934E+00 -.232E+02
   0.149E+02 0.238E+02 -.179E+03   -.176E+02 -.239E+02 0.199E+03   0.220E+01 -.132E+01 -.199E+02
   0.229E+02 0.696E+01 0.438E+03   -.270E+02 -.729E+01 -.460E+03   0.358E+01 0.778E-01 0.227E+02
   -.981E+01 0.189E+02 0.446E+03   0.102E+02 -.251E+02 -.463E+03   0.327E+00 0.648E+01 0.176E+02
   -.461E+01 0.828E+01 0.441E+03   0.585E+01 -.616E+01 -.463E+03   -.162E+01 -.311E+01 0.226E+02
   -.149E+02 0.557E+01 0.458E+03   0.177E+02 -.830E+01 -.481E+03   -.227E+01 0.282E+01 0.240E+02
   -.602E+02 -.273E+02 -.211E+03   0.614E+02 0.302E+02 0.224E+03   0.109E+01 -.270E+01 -.148E+02
   -.497E+01 -.265E+01 -.233E+03   0.628E+01 0.831E+00 0.247E+03   -.639E+00 0.231E+01 -.150E+02
   0.242E+02 -.214E+02 -.242E+03   -.214E+02 0.233E+02 0.258E+03   -.314E+01 -.169E+01 -.163E+02
   -.165E+02 0.215E+02 -.242E+03   0.180E+02 -.207E+02 0.255E+03   -.832E+00 -.121E+01 -.132E+02
   -.851E+01 -.890E+01 0.387E+03   0.796E+01 0.978E+01 -.410E+03   0.656E+00 -.593E+00 0.242E+02
   -.163E+02 -.201E+02 0.372E+03   0.204E+02 0.227E+02 -.392E+03   -.479E+01 -.196E+01 0.209E+02
   0.884E+01 0.294E+02 0.380E+03   -.861E+01 -.344E+02 -.403E+03   0.425E-01 0.571E+01 0.234E+02
   0.262E+02 -.168E+02 0.391E+03   -.315E+02 0.206E+02 -.412E+03   0.561E+01 -.320E+01 0.214E+02
   0.242E+02 -.132E+02 -.542E+03   -.256E+02 0.143E+02 0.565E+03   0.902E+00 -.959E+00 -.243E+02
   0.307E+01 0.102E+02 -.541E+03   -.528E+01 -.108E+02 0.559E+03   0.226E+01 0.379E+00 -.173E+02
   -.191E+02 -.114E+02 -.534E+03   0.200E+02 0.127E+02 0.555E+03   -.594E+00 -.174E+01 -.211E+02
   -.158E+02 -.200E+02 -.536E+03   0.184E+02 0.222E+02 0.558E+03   -.215E+01 -.963E+00 -.206E+02
   0.329E+02 0.235E+02 0.112E+03   -.357E+02 -.260E+02 -.123E+03   0.129E+01 0.263E+01 0.131E+02
   0.188E+02 0.836E+01 0.114E+03   -.212E+02 -.815E+01 -.125E+03   0.148E+01 -.162E+00 0.113E+02
   -.446E+02 0.128E+02 0.140E+03   0.480E+02 -.155E+02 -.154E+03   -.147E+01 0.197E+01 0.126E+02
   -.892E+01 -.736E+01 0.118E+03   0.106E+02 0.787E+01 -.128E+03   -.185E+01 -.951E+00 0.963E+01
   -.146E+01 0.229E+01 0.811E+01   0.995E-13 -.204E-13 0.119E-11   0.143E+01 -.231E+01 -.808E+01

 POSITION                                       TOTAL-FORCE (eV/Angst)
     -0.51247      4.93901     14.15379         0.674465      0.351864      0.845749
      2.70565      3.85761      5.07325         0.079400     -0.231571     -0.656708
     -0.19427      1.86789      9.93520         0.138301      0.245114     -1.199782
     -1.84009      4.36164      9.81366         1.221774     -0.501356     -1.113403
      2.51068      1.88551      9.53868         0.405786      0.034078      0.401889
      1.19292      4.27560      9.75449        -0.006045      0.346001     -0.286823
     -0.08622      2.08688      2.77138         0.415757     -0.453519     -1.123700
     -1.50162      4.56171      2.63556        -0.301892      0.119450     -0.119173
      2.72235      2.08740      2.64108         1.395071     -0.249622     -0.170931
      1.35580      4.59467      2.49492        -0.114393      0.916238      0.611860
     -0.07653      0.29406      7.33151        -0.436222     -0.290355     -0.454756
     -1.51449      2.79078      7.29911         0.488021     -0.495407      0.086966
     -0.06499      5.32461      7.39366        -1.233602     -0.710844     -0.760388
      1.37698      2.83623      7.25029        -2.261828     -1.423497      1.420091
      1.28772      0.99420     11.82409        -0.220708      1.591608      2.025156
     -0.10719      3.56684     11.91949        -0.528665     -1.052891     -0.678648
      4.15396      0.98657     11.84979        -0.497308      0.394135      0.843556
      2.74627      3.55902     11.99749        -0.842844     -0.953864     -1.468153
     -0.01455      0.26165      3.68755        -0.353041      0.519785     -1.206963
     -1.52321      2.87883      3.66517        -0.585030      0.713013     -0.467062
      2.81495      0.26477      3.54038        -0.265047      0.867631     -0.375590
      1.40727      3.09982      3.56869        -0.549109     -1.480640      0.170998
      1.36079      1.23410      1.73095        -0.479686     -0.256327      0.534192
     -0.17517      3.72099      1.60123         0.729685      0.339280      0.449486
      4.22386      1.31924      1.70854        -0.389506     -1.005679      0.555382
      2.72994      3.74784      1.56348         0.523604      0.106785      0.926298
      1.04788      1.09985      8.51923         2.371736      0.227311     -1.423250
     -0.15544      3.60985      8.34669         0.558454      0.442079     -0.510895
      4.17959      1.09563      8.36185        -0.406421      0.130458     -0.190188
      2.65620      3.69252      8.33244         0.648802     -0.403080     -0.132365
     -0.07318      1.88791      6.30298         0.111480      0.277805      0.952564
     -1.47303      4.44107      6.34058        -0.609506      0.668849      1.039159
      2.75904      1.88993      6.40993         0.267248      0.768768      0.102399
      1.36401      4.45728      6.36576         0.255630      0.682944      0.205485
     -0.05089      1.80927     12.81019        -0.422173      0.156413     -0.584901
     -1.54660      4.45937     12.80989         0.017512     -0.250668      0.402590
      2.68531      1.81163     12.81509         0.298490     -0.436412      0.218004
      1.25400      4.36729     12.77389         0.498653      1.256782      1.222063
      2.75029      5.23188     10.79639        -1.452473      0.103408      1.449738
      4.18509      2.71180     10.91509        -0.997228     -0.031532      0.017804
     -0.26269      5.26544     10.91849         1.969366     -0.639553     -1.430700
      1.34811      2.74787     10.90709        -0.116511     -0.392981     -0.127050
    total drift:                               -0.031014     -0.011042      0.029671

  FREE ENERGIE OF THE ION-ELECTRON SYSTEM (eV)
  free  energy   TOTEN  =      -232.31790635 eV

  energy  without entropy=     -232.31032352  energy(sigma->0) =     -232.31411493

 total charge

[...]

 magnetization (x)

# of ion       s       p       d       tot
    1        0.001   0.000   0.000   0.001
    2        0.001   0.000   0.000   0.002
    3        0.000   0.000   0.000   0.001
    4        0.001   0.000   0.000   0.001
    5        0.000  -0.002   0.000  -0.001
    6        0.000  -0.002   0.000  -0.002
    7        0.005   0.007   0.020   0.033
    8        0.016   0.020   1.491   1.527
    9        0.018   0.020   1.572   1.610
   10        0.016   0.020   1.478   1.515
   11        0.013   0.016   1.443   1.472
   12        0.016   0.014   1.730   1.760
   13        0.003   0.005   0.033   0.040
   14        0.005   0.007  -0.003   0.009
   15        0.009   0.010   1.272   1.291
   16        0.002   0.002  -0.020  -0.017
   17        0.004   0.003   0.006   0.013
   18        0.002   0.001  -0.016  -0.013
   19       -0.000  -0.172   0.000  -0.172
   20        0.001  -0.154   0.000  -0.153
   21        0.001  -0.287   0.000  -0.286
   22        0.001  -0.139   0.000  -0.138
   23        0.001  -0.201   0.000  -0.200
   24       -0.001  -0.158   0.000  -0.159
   25        0.001  -0.198   0.000  -0.198
   26        0.001  -0.223   0.000  -0.222
   27        0.001  -0.040   0.000  -0.039
   28        0.001  -0.062   0.000  -0.061
   29        0.001  -0.112   0.000  -0.111
   30        0.002  -0.076   0.000  -0.074
   31        0.001  -0.277   0.000  -0.276
   32        0.001  -0.220   0.000  -0.220
   33        0.001  -0.102   0.000  -0.102
   34       -0.001  -0.058   0.000  -0.059
   35        0.001  -0.053   0.000  -0.052
   36       -0.001  -0.078   0.000  -0.078
   37        0.000  -0.106   0.000  -0.105
   38       -0.001  -0.029   0.000  -0.030
   39        0.002  -0.012   0.000  -0.010
   40       -0.001  -0.012   0.000  -0.013
   41        0.001  -0.003   0.000  -0.002
   42       -0.001  -0.045   0.000  -0.046
tot          0.120  -2.694   9.007   6.434